dimension 3
units lj

# Parameters
variable rho      equal 0.2
variable T        equal 1
variable length   equal 42

# Molecule setup
atom_style bond
bond_style harmonic
comm_modify vel yes cutoff 2.5

lattice sc ${rho}
region r block 0 ${length} 0 ${length} 0 ${length}
create_box 1 r bond/types 1 extra/bond/per/atom 1

molecule dumbbell dumbbell.txt
create_atoms 0 region r mol dumbbell 42

bond_coeff 1 100 1 # the first number is the bond_type (made up by us), which also appears in the molecule file.
